NAME: A-n34-k5
COMMENT: GVRP 
DIMENSION:  34 
VEHICLES:  3 
GVRP_SETS:  17 
CAPACITY:  100 
NODE_COORD_SECTION 
1 73.000000 39.000000
2 67.000000 91.000000
3 39.000000 21.000000
4 3.000000 9.000000
5 97.000000 15.000000
6 91.000000 65.000000
7 55.000000 75.000000
8 55.000000 71.000000
9 57.000000 85.000000
10 21.000000 15.000000
11 47.000000 57.000000
12 51.000000 97.000000
13 11.000000 11.000000
14 43.000000 59.000000
15 63.000000 69.000000
16 55.000000 77.000000
17 35.000000 11.000000
18 27.000000 91.000000
19 49.000000 25.000000
20 29.000000 93.000000
21 71.000000 27.000000
22 31.000000 43.000000
23 27.000000 9.000000
24 67.000000 99.000000
25 87.000000 81.000000
26 23.000000 81.000000
27 89.000000 33.000000
28 71.000000 91.000000
29 19.000000 77.000000
30 65.000000 77.000000
31 87.000000 79.000000
32 19.000000 83.000000
33 1.000000 59.000000
34 55.000000 7.000000
GVRP_SET_SECTION 
 1 4  13 -1
 2  25  31 -1
 3  29  26  32 -1
 4  5 -1
 5  19  3 -1
 6  12 -1
 7  11  14 -1
 8  33 -1
 9  23  10  17 -1
 10  21 -1
 11  30  7  8  9  15  16 -1
 12  22 -1
 13  20  18 -1
 14  27 -1
 15  34 -1
 16  6 -1
 17  24  2  28 -1
 DEMAND_SECTION
 1 14 
 2 19 
 3 14 
 4 15 
 5 6 
 6 7 
 7 9 
 8 15 
 9 16 
 10 13 
 11 14 
 12 16 
 13 15 
 14 20 
 15 1 
 16 15 
 17 16 
INTRA_CLUSTER_DISTANCE
10000000000000 10000000000000 10000000000000 10000000000000 10000000000000 10000000000000 10000000000000 10000000000000 10000000000000 10000000000000 10000000000000 10000000000000 10000000000000 10000000000000 10000000000000 10000000000000 10000000000000 10000000000000 10000000000000 10000000000000 10000000000000 10000000000000 10000000000000 10000000000000 10000000000000 10000000000000 10000000000000 10000000000000 10000000000000 10000000000000 10000000000000 10000000000000 10000000000000 10000000000000 
10000000000000 10000000000000 10000000000000 10000000000000 10000000000000 10000000000000 10000000000000 10000000000000 10000000000000 10000000000000 10000000000000 10000000000000 10000000000000 10000000000000 10000000000000 10000000000000 10000000000000 10000000000000 10000000000000 10000000000000 10000000000000 10000000000000 10000000000000 13 10000000000000 10000000000000 10000000000000 17 10000000000000 10000000000000 10000000000000 10000000000000 10000000000000 10000000000000 
10000000000000 10000000000000 10000000000000 10000000000000 10000000000000 10000000000000 10000000000000 10000000000000 10000000000000 10000000000000 10000000000000 10000000000000 10000000000000 10000000000000 10000000000000 10000000000000 10000000000000 10000000000000 11 10000000000000 10000000000000 10000000000000 10000000000000 10000000000000 10000000000000 10000000000000 10000000000000 10000000000000 10000000000000 10000000000000 10000000000000 10000000000000 10000000000000 10000000000000 
10000000000000 10000000000000 10000000000000 10000000000000 10000000000000 10000000000000 10000000000000 10000000000000 10000000000000 10000000000000 10000000000000 10000000000000 8 10000000000000 10000000000000 10000000000000 10000000000000 10000000000000 10000000000000 10000000000000 10000000000000 10000000000000 10000000000000 10000000000000 10000000000000 10000000000000 10000000000000 10000000000000 10000000000000 10000000000000 10000000000000 10000000000000 10000000000000 10000000000000 
10000000000000 10000000000000 10000000000000 10000000000000 10000000000000 10000000000000 10000000000000 10000000000000 10000000000000 10000000000000 10000000000000 10000000000000 10000000000000 10000000000000 10000000000000 10000000000000 10000000000000 10000000000000 10000000000000 10000000000000 10000000000000 10000000000000 10000000000000 10000000000000 10000000000000 10000000000000 10000000000000 10000000000000 10000000000000 10000000000000 10000000000000 10000000000000 10000000000000 10000000000000 
10000000000000 10000000000000 10000000000000 10000000000000 10000000000000 10000000000000 10000000000000 10000000000000 10000000000000 10000000000000 10000000000000 10000000000000 10000000000000 10000000000000 10000000000000 10000000000000 10000000000000 10000000000000 10000000000000 10000000000000 10000000000000 10000000000000 10000000000000 10000000000000 10000000000000 10000000000000 10000000000000 10000000000000 10000000000000 10000000000000 10000000000000 10000000000000 10000000000000 10000000000000 
10000000000000 10000000000000 10000000000000 10000000000000 10000000000000 10000000000000 10000000000000 37 35 10000000000000 10000000000000 10000000000000 10000000000000 10000000000000 37 39 10000000000000 10000000000000 10000000000000 10000000000000 10000000000000 10000000000000 10000000000000 10000000000000 10000000000000 10000000000000 10000000000000 10000000000000 10000000000000 40 10000000000000 10000000000000 10000000000000 10000000000000 
10000000000000 10000000000000 10000000000000 10000000000000 10000000000000 10000000000000 37 10000000000000 36 10000000000000 10000000000000 10000000000000 10000000000000 10000000000000 33 39 10000000000000 10000000000000 10000000000000 10000000000000 10000000000000 10000000000000 10000000000000 10000000000000 10000000000000 10000000000000 10000000000000 10000000000000 10000000000000 39 10000000000000 10000000000000 10000000000000 10000000000000 
10000000000000 10000000000000 10000000000000 10000000000000 10000000000000 10000000000000 35 36 10000000000000 10000000000000 10000000000000 10000000000000 10000000000000 10000000000000 34 33 10000000000000 10000000000000 10000000000000 10000000000000 10000000000000 10000000000000 10000000000000 10000000000000 10000000000000 10000000000000 10000000000000 10000000000000 10000000000000 30 10000000000000 10000000000000 10000000000000 10000000000000 
10000000000000 10000000000000 10000000000000 10000000000000 10000000000000 10000000000000 10000000000000 10000000000000 10000000000000 10000000000000 10000000000000 10000000000000 10000000000000 10000000000000 10000000000000 10000000000000 16 10000000000000 10000000000000 10000000000000 10000000000000 10000000000000 23 10000000000000 10000000000000 10000000000000 10000000000000 10000000000000 10000000000000 10000000000000 10000000000000 10000000000000 10000000000000 10000000000000 
10000000000000 10000000000000 10000000000000 10000000000000 10000000000000 10000000000000 10000000000000 10000000000000 10000000000000 10000000000000 10000000000000 10000000000000 10000000000000 4 10000000000000 10000000000000 10000000000000 10000000000000 10000000000000 10000000000000 10000000000000 10000000000000 10000000000000 10000000000000 10000000000000 10000000000000 10000000000000 10000000000000 10000000000000 10000000000000 10000000000000 10000000000000 10000000000000 10000000000000 
10000000000000 10000000000000 10000000000000 10000000000000 10000000000000 10000000000000 10000000000000 10000000000000 10000000000000 10000000000000 10000000000000 10000000000000 10000000000000 10000000000000 10000000000000 10000000000000 10000000000000 10000000000000 10000000000000 10000000000000 10000000000000 10000000000000 10000000000000 10000000000000 10000000000000 10000000000000 10000000000000 10000000000000 10000000000000 10000000000000 10000000000000 10000000000000 10000000000000 10000000000000 
10000000000000 10000000000000 10000000000000 8 10000000000000 10000000000000 10000000000000 10000000000000 10000000000000 10000000000000 10000000000000 10000000000000 10000000000000 10000000000000 10000000000000 10000000000000 10000000000000 10000000000000 10000000000000 10000000000000 10000000000000 10000000000000 10000000000000 10000000000000 10000000000000 10000000000000 10000000000000 10000000000000 10000000000000 10000000000000 10000000000000 10000000000000 10000000000000 10000000000000 
10000000000000 10000000000000 10000000000000 10000000000000 10000000000000 10000000000000 10000000000000 10000000000000 10000000000000 10000000000000 4 10000000000000 10000000000000 10000000000000 10000000000000 10000000000000 10000000000000 10000000000000 10000000000000 10000000000000 10000000000000 10000000000000 10000000000000 10000000000000 10000000000000 10000000000000 10000000000000 10000000000000 10000000000000 10000000000000 10000000000000 10000000000000 10000000000000 10000000000000 
10000000000000 10000000000000 10000000000000 10000000000000 10000000000000 10000000000000 37 33 34 10000000000000 10000000000000 10000000000000 10000000000000 10000000000000 10000000000000 39 10000000000000 10000000000000 10000000000000 10000000000000 10000000000000 10000000000000 10000000000000 10000000000000 10000000000000 10000000000000 10000000000000 10000000000000 10000000000000 33 10000000000000 10000000000000 10000000000000 10000000000000 
10000000000000 10000000000000 10000000000000 10000000000000 10000000000000 10000000000000 39 39 33 10000000000000 10000000000000 10000000000000 10000000000000 10000000000000 39 10000000000000 10000000000000 10000000000000 10000000000000 10000000000000 10000000000000 10000000000000 10000000000000 10000000000000 10000000000000 10000000000000 10000000000000 10000000000000 10000000000000 38 10000000000000 10000000000000 10000000000000 10000000000000 
10000000000000 10000000000000 10000000000000 10000000000000 10000000000000 10000000000000 10000000000000 10000000000000 10000000000000 16 10000000000000 10000000000000 10000000000000 10000000000000 10000000000000 10000000000000 10000000000000 10000000000000 10000000000000 10000000000000 10000000000000 10000000000000 23 10000000000000 10000000000000 10000000000000 10000000000000 10000000000000 10000000000000 10000000000000 10000000000000 10000000000000 10000000000000 10000000000000 
10000000000000 10000000000000 10000000000000 10000000000000 10000000000000 10000000000000 10000000000000 10000000000000 10000000000000 10000000000000 10000000000000 10000000000000 10000000000000 10000000000000 10000000000000 10000000000000 10000000000000 10000000000000 10000000000000 3 10000000000000 10000000000000 10000000000000 10000000000000 10000000000000 10000000000000 10000000000000 10000000000000 10000000000000 10000000000000 10000000000000 10000000000000 10000000000000 10000000000000 
10000000000000 10000000000000 11 10000000000000 10000000000000 10000000000000 10000000000000 10000000000000 10000000000000 10000000000000 10000000000000 10000000000000 10000000000000 10000000000000 10000000000000 10000000000000 10000000000000 10000000000000 10000000000000 10000000000000 10000000000000 10000000000000 10000000000000 10000000000000 10000000000000 10000000000000 10000000000000 10000000000000 10000000000000 10000000000000 10000000000000 10000000000000 10000000000000 10000000000000 
10000000000000 10000000000000 10000000000000 10000000000000 10000000000000 10000000000000 10000000000000 10000000000000 10000000000000 10000000000000 10000000000000 10000000000000 10000000000000 10000000000000 10000000000000 10000000000000 10000000000000 3 10000000000000 10000000000000 10000000000000 10000000000000 10000000000000 10000000000000 10000000000000 10000000000000 10000000000000 10000000000000 10000000000000 10000000000000 10000000000000 10000000000000 10000000000000 10000000000000 
10000000000000 10000000000000 10000000000000 10000000000000 10000000000000 10000000000000 10000000000000 10000000000000 10000000000000 10000000000000 10000000000000 10000000000000 10000000000000 10000000000000 10000000000000 10000000000000 10000000000000 10000000000000 10000000000000 10000000000000 10000000000000 10000000000000 10000000000000 10000000000000 10000000000000 10000000000000 10000000000000 10000000000000 10000000000000 10000000000000 10000000000000 10000000000000 10000000000000 10000000000000 
10000000000000 10000000000000 10000000000000 10000000000000 10000000000000 10000000000000 10000000000000 10000000000000 10000000000000 10000000000000 10000000000000 10000000000000 10000000000000 10000000000000 10000000000000 10000000000000 10000000000000 10000000000000 10000000000000 10000000000000 10000000000000 10000000000000 10000000000000 10000000000000 10000000000000 10000000000000 10000000000000 10000000000000 10000000000000 10000000000000 10000000000000 10000000000000 10000000000000 10000000000000 
10000000000000 10000000000000 10000000000000 10000000000000 10000000000000 10000000000000 10000000000000 10000000000000 10000000000000 23 10000000000000 10000000000000 10000000000000 10000000000000 10000000000000 10000000000000 23 10000000000000 10000000000000 10000000000000 10000000000000 10000000000000 10000000000000 10000000000000 10000000000000 10000000000000 10000000000000 10000000000000 10000000000000 10000000000000 10000000000000 10000000000000 10000000000000 10000000000000 
10000000000000 13 10000000000000 10000000000000 10000000000000 10000000000000 10000000000000 10000000000000 10000000000000 10000000000000 10000000000000 10000000000000 10000000000000 10000000000000 10000000000000 10000000000000 10000000000000 10000000000000 10000000000000 10000000000000 10000000000000 10000000000000 10000000000000 10000000000000 10000000000000 10000000000000 10000000000000 12 10000000000000 10000000000000 10000000000000 10000000000000 10000000000000 10000000000000 
10000000000000 10000000000000 10000000000000 10000000000000 10000000000000 10000000000000 10000000000000 10000000000000 10000000000000 10000000000000 10000000000000 10000000000000 10000000000000 10000000000000 10000000000000 10000000000000 10000000000000 10000000000000 10000000000000 10000000000000 10000000000000 10000000000000 10000000000000 10000000000000 10000000000000 10000000000000 10000000000000 10000000000000 10000000000000 10000000000000 2 10000000000000 10000000000000 10000000000000 
10000000000000 10000000000000 10000000000000 10000000000000 10000000000000 10000000000000 10000000000000 10000000000000 10000000000000 10000000000000 10000000000000 10000000000000 10000000000000 10000000000000 10000000000000 10000000000000 10000000000000 10000000000000 10000000000000 10000000000000 10000000000000 10000000000000 10000000000000 10000000000000 10000000000000 10000000000000 10000000000000 10000000000000 10 10000000000000 10000000000000 12 10000000000000 10000000000000 
10000000000000 10000000000000 10000000000000 10000000000000 10000000000000 10000000000000 10000000000000 10000000000000 10000000000000 10000000000000 10000000000000 10000000000000 10000000000000 10000000000000 10000000000000 10000000000000 10000000000000 10000000000000 10000000000000 10000000000000 10000000000000 10000000000000 10000000000000 10000000000000 10000000000000 10000000000000 10000000000000 10000000000000 10000000000000 10000000000000 10000000000000 10000000000000 10000000000000 10000000000000 
10000000000000 17 10000000000000 10000000000000 10000000000000 10000000000000 10000000000000 10000000000000 10000000000000 10000000000000 10000000000000 10000000000000 10000000000000 10000000000000 10000000000000 10000000000000 10000000000000 10000000000000 10000000000000 10000000000000 10000000000000 10000000000000 10000000000000 12 10000000000000 10000000000000 10000000000000 10000000000000 10000000000000 10000000000000 10000000000000 10000000000000 10000000000000 10000000000000 
10000000000000 10000000000000 10000000000000 10000000000000 10000000000000 10000000000000 10000000000000 10000000000000 10000000000000 10000000000000 10000000000000 10000000000000 10000000000000 10000000000000 10000000000000 10000000000000 10000000000000 10000000000000 10000000000000 10000000000000 10000000000000 10000000000000 10000000000000 10000000000000 10000000000000 10 10000000000000 10000000000000 10000000000000 10000000000000 10000000000000 10 10000000000000 10000000000000 
10000000000000 10000000000000 10000000000000 10000000000000 10000000000000 10000000000000 40 39 30 10000000000000 10000000000000 10000000000000 10000000000000 10000000000000 33 38 10000000000000 10000000000000 10000000000000 10000000000000 10000000000000 10000000000000 10000000000000 10000000000000 10000000000000 10000000000000 10000000000000 10000000000000 10000000000000 10000000000000 10000000000000 10000000000000 10000000000000 10000000000000 
10000000000000 10000000000000 10000000000000 10000000000000 10000000000000 10000000000000 10000000000000 10000000000000 10000000000000 10000000000000 10000000000000 10000000000000 10000000000000 10000000000000 10000000000000 10000000000000 10000000000000 10000000000000 10000000000000 10000000000000 10000000000000 10000000000000 10000000000000 10000000000000 2 10000000000000 10000000000000 10000000000000 10000000000000 10000000000000 10000000000000 10000000000000 10000000000000 10000000000000 
10000000000000 10000000000000 10000000000000 10000000000000 10000000000000 10000000000000 10000000000000 10000000000000 10000000000000 10000000000000 10000000000000 10000000000000 10000000000000 10000000000000 10000000000000 10000000000000 10000000000000 10000000000000 10000000000000 10000000000000 10000000000000 10000000000000 10000000000000 10000000000000 10000000000000 12 10000000000000 10000000000000 10 10000000000000 10000000000000 10000000000000 10000000000000 10000000000000 
10000000000000 10000000000000 10000000000000 10000000000000 10000000000000 10000000000000 10000000000000 10000000000000 10000000000000 10000000000000 10000000000000 10000000000000 10000000000000 10000000000000 10000000000000 10000000000000 10000000000000 10000000000000 10000000000000 10000000000000 10000000000000 10000000000000 10000000000000 10000000000000 10000000000000 10000000000000 10000000000000 10000000000000 10000000000000 10000000000000 10000000000000 10000000000000 10000000000000 10000000000000 
10000000000000 10000000000000 10000000000000 10000000000000 10000000000000 10000000000000 10000000000000 10000000000000 10000000000000 10000000000000 10000000000000 10000000000000 10000000000000 10000000000000 10000000000000 10000000000000 10000000000000 10000000000000 10000000000000 10000000000000 10000000000000 10000000000000 10000000000000 10000000000000 10000000000000 10000000000000 10000000000000 10000000000000 10000000000000 10000000000000 10000000000000 10000000000000 10000000000000 10000000000000 
EOF
